Version identifier: 20.1.0.0 | 2020-11-10 | 9bedb6d68
Tried aggregator 2 times.
MIP Presolve eliminated 2445 rows and 1274 columns.
MIP Presolve modified 6122 coefficients.
Aggregator did 242 substitutions.
Reduced MIP has 3722 rows, 2899 columns, and 12220 nonzeros.
Reduced MIP has 562 binaries, 2337 generals, 0 SOSs, and 0 indicators.
Presolve time = 0.03 sec. (14.47 ticks)
Probing fixed 80 vars, tightened 620 bounds.
Probing time = 0.01 sec. (1.42 ticks)
Cover probing fixed 0 vars, tightened 104 bounds.
Tried aggregator 1 time.
Detecting symmetries...
MIP Presolve eliminated 1560 rows and 80 columns.
MIP Presolve modified 209 coefficients.
Reduced MIP has 2162 rows, 2819 columns, and 7060 nonzeros.
Reduced MIP has 880 binaries, 1939 generals, 0 SOSs, and 0 indicators.
Presolve time = 0.02 sec. (8.46 ticks)
Probing time = 0.00 sec. (0.67 ticks)
Clique table members: 165.
MIP emphasis: balance optimality and feasibility.
MIP search method: dynamic search.
Parallel mode: deterministic, using up to 24 threads.
Root relaxation solution time = 0.04 sec. (7.50 ticks)

        Nodes                                         Cuts/
   Node  Left     Objective  IInf  Best Integer    Best Bound    ItCnt     Gap

*     0+    0                           38.0000        0.0000           100.00%
      0     0        0.0000    82       38.0000        0.0000      585  100.00%
*     0+    0                           16.0000        0.0000           100.00%
*     0+    0                           15.0000        0.0000           100.00%
      0     0        0.0000    86       15.0000     Cuts: 233      809  100.00%
      0     0        0.0000    78       15.0000      Cuts: 65      941  100.00%
      0     0        0.0000    96       15.0000     Cuts: 102      986  100.00%
*     0+    0                           10.0000        0.0000           100.00%
*     0+    0                            7.0000        0.0000           100.00%
      0     0        cutoff              7.0000        7.0000      986    0.00%
Elapsed time = 1.85 sec. (288.07 ticks, tree = 0.01 MB, solutions = 5)

Implied bound cuts applied:  87
Flow cuts applied:  1
Mixed integer rounding cuts applied:  13
Zero-half cuts applied:  133
Lift and project cuts applied:  11
Gomory fractional cuts applied:  34

Root node processing (before b&c):
  Real time             =    1.85 sec. (288.36 ticks)
Parallel b&c, 24 threads:
  Real time             =    0.00 sec. (0.00 ticks)
  Sync time (average)   =    0.00 sec.
  Wait time (average)   =    0.00 sec.
                          ------------
Total (root+branch&cut) =    1.85 sec. (288.36 ticks)

Solution status = Optimal
Solution LB = 7
Solution UB = 7
Runtime = 1.8611 seconds
	Command being timed: "/home/min/git_repos/CS598MEBProject/CNT-ILP/build/cnt -s 2 ./output/k8_n40/simC_c1_k8_n40_u1_s2_del04.input-left.cnp"
	User time (seconds): 25.11
	System time (seconds): 0.27
	Percent of CPU this job got: 1325%
	Elapsed (wall clock) time (h:mm:ss or m:ss): 0:01.91
	Average shared text size (kbytes): 0
	Average unshared data size (kbytes): 0
	Average stack size (kbytes): 0
	Average total size (kbytes): 0
	Maximum resident set size (kbytes): 178052
	Average resident set size (kbytes): 0
	Major (requiring I/O) page faults: 0
	Minor (reclaiming a frame) page faults: 64118
	Voluntary context switches: 6533
	Involuntary context switches: 3158
	Swaps: 0
	File system inputs: 0
	File system outputs: 16
	Socket messages sent: 0
	Socket messages received: 0
	Signals delivered: 0
	Page size (bytes): 4096
	Exit status: 0
